100 67915

 150 420
660 637
8 13
29 992
296 36
986 101
926 794
721 86
640 516
340 223
628 338
439 960
144 166
942 383
830 856
747 895
519 376
976 471
45 790
955 642
239 31
952 375
944 11
155 988
181 302
215 96
88 190
256 453
511 192
73 486
931 266
179 424
212 128
805 238
234 920
465 355
751 940
223 112
631 828
825 446
264 343
207 145
607 65
885 247
734 735
366 991
276 490
380 825
743 439
309 106
631 181
268 184
945 226
785 777
64 790
810 909
350 89
925 688
915 530
494 371
523 972
98 936
946 913
71 399
364 106
570 271
802 975
763 831
276 503
50 679
358 525
728 849
906 32
928 393
564 40
783 660
485 218
84 731
899 981
805 82
638 845
808 720
584 201
296 447
236 844
56 428
919 38
360 211
907 444
110 327
192 761
904 227
93 48
862 18
568 912
60 439
650 807
39 708
540 187
49 345
